32      5       
13      19      21      22      21      
0       0       0       0       0       0       3       2       3       4       
4       4       0       7       0       2       3       6       19      23      
9       8       0       4       0       4       1       20      
3       0       0       5       0       4       2       5       8       
6       0       1       0       0       10      1       31      
6       9       0       3       0       0       3       7       9       17      
9       0       2       4       7       1       2       13      21      
8       0       0       5       0       0       3       14      15      25      
1       0       6       0       0       0       3       10      11      22      
2       9       9       0       9       1       1       12      
3       1       4       8       0       0       2       16      20      
1       0       6       7       0       0       1       28      
2       0       7       8       0       0       1       26      
7       4       0       1       7       0       2       27      28      
1       0       0       0       10      0       1       18      
6       3       10      8       2       8       3       18      21      27      
7       0       7       2       0       0       1       26      
2       5       0       0       3       0       1       24      
2       0       7       2       0       8       1       29      
3       2       0       0       0       5       2       29      31      
5       3       5       0       0       0       1       25      
7       3       6       9       0       0       1       26      
1       0       0       0       0       9       1       30      
7       9       2       3       10      6       1       30      
5       0       0       7       0       3       1       29      
8       0       0       10      0       1       1       27      
9       5       0       10      7       0       1       30      
1       0       0       5       9       8       1       31      
1       0       0       0       5       0       1       32      
4       0       0       4       7       5       1       32      
4       4       0       0       8       1       1       32      
0       0       0       0       0       0       0       